# Keten Research Group at Northwestern University
# GO "LIPIT"
# LAMMPS version 3Mar20
# NOTE: for newer LAMMPS versions, the "delete_bonds all bond 0 special"
#       may crash the simulation and shoould be removed
# Needs folder “lipit_data” to run
# The equilibrated data file needs the following mass added to it before LIPIT: 4	96.0

units real                 
atom_style full
boundary p p f
read_data equil.data

timestep 4.0              
comm_modify cutoff 300
neighbor 2.0 bin        
neigh_modify delay 0 every 1 check yes page 500000 one 50000

### potential
bond_style hybrid morse table linear 4000
bond_coeff 1 morse 443.07 1.154 2.86
bond_coeff 2 table bond2-GO.table GO
bond_coeff 3 table bond3-GO.table GO

angle_style harmonic
angle_coeff  1 456.61 120
angle_coeff  2 259.47 120
angle_coeff  3 189.93 120

pair_style hybrid lj/cut 20 lj/charmm/coul/charmm 9 12
pair_modify mix arithmetic
pair_coeff 1 1 lj/cut 0.204 7.48
pair_coeff 2 2 lj/cut 1.024 7.48
pair_coeff 3 3 lj/cut 0.638 7.48
pair_coeff * 4 lj/charmm/coul/charmm 0.813 3.46

special_bonds   charmm
delete_bonds    all bond 0 special
fix             BondBreak1 all bond/break 1 1 3.7
fix             BondBreak2 all bond/break 5 2 4.0 #3.5
fix             BondBreak3 all bond/break 5 3 4.8 #4.3

group GO type 1 2 3

##thermo output
thermo          100      
thermo_style    custom step temp etotal epair ebond eangle edihed ke pxx pyy pzz lx ly lz vol density       

##ballistic setup-film
variable rhole equal 720
region hole sphere 0 0 0 v_rhole side in units box
group hole region hole                                           
group base subtract GO hole                                    
fix processorLoad all balance 1000 1.05 shift xyz 100 1.05

variable rbullet equal 250 #BULLET RADIUS
variable zhi_delta equal "2*v_rbullet+40"
variable my_zhi_delta equal ${zhi_delta}
variable zlo_delta equal "lz*2+2000"
variable my_zlo_delta equal ${zlo_delta}
variable bullet_center equal "zhi+v_rbullet+20" # Offset by 20A from film surface
variable my_bullet_center equal ${bullet_center}

##ballistic setup-bullet
change_box all z delta -${my_zlo_delta} ${my_zhi_delta} units box
variable vel equal -0.010  #BULLET VELOCITY (0.01 A/fs = 1000 m/s)
lattice diamond 7.2 
region 1 sphere 0 0 v_my_bullet_center v_rbullet side in units box 
create_atoms 4 region 1 units box
group projectile type 4                               
mass 4 96.0
neigh_modify exclude group projectile projectile
fix 1 projectile rigid single                        
velocity    projectile set 0.0 0.0 v_vel units box

##ballistic setup-clamped boundary
fix preventExplosion hole nve/limit 0.1 #10 km/s
fix clampBoundary base setforce 0.0 0.0 0.0
velocity base set 0.0 0.0 0.0 units box

##define calculations during impact
compute 	1 projectile com
variable    zcom equal "c_1[3]"
variable    dist_from_lo_edge equal "c_1[3]-v_rbullet-zlo" # A
compute		2 projectile ke
# current_bullet_vel  calculation is specifically for 250 A radius bullet of 96 g/mol beads with 7.2 A lattice spacing
variable    current_bullet_vel equal "0.24916*sqrt(c_2)/100000" # A/fs
variable    next_1000ts_zcom equal "c_1[3]+v_current_bullet_vel*4000" # A

fix         outputData all ave/time 1 10 10 c_2 c_1[3] v_current_bullet_vel file projectileData_0.dat
fix         scissionData all ave/time 1 1 25 f_BondBreak1[2] f_BondBreak2[2] f_BondBreak3[2] file bond_break_0.dat

compute 3 all stress/atom NULL
dump mydump1 all custom 5000 lipit_data/Conf_*.dat id type xu yu zu vx vy vz c_3[1] c_3[2] c_3[3]
dump_modify mydump1 sort id

# Will crash when it reaches the bottom
run 20000
quit
